# Node Net
 33   1
600   1
961   1
1581   1
 40   1
 20   2
1569   2
1161   2
1000   2
 16   2
1597   3
1400   3
 23   3
280   3
921   3
1240   4
1588   4
1241   4
 30   4
  4   4
1573   5
1593   5
241   5
1579   5
1081   5
1564   6
760   6
480   6
120   6
 80   6
1600   7
441   7
1041   8
 25   8
1481   9
1568   9
 15  10
1040  10
841  11
1572  11
560  12
201  12
121  13
1160  13
 24  14
1320  14
